outputs/case_440.model.txt
risk_of_harming_insured_rights = False
financial_or_business_status_significantly_deteriorated = False
financial_or_business_improvement_plan_completed = False
capital_adequacy_ratio = 45
unable_to_pay_debts = False
days_after_deadline = 0
merger_completed = False
net_worth_ratio = 3/2
unable_to_fulfill_contractual_obligations = False
improvement_plan_approved_by_authority = False
net_worth = -10
improvement_plan_effective = False
improvement_plan_ordered_by_authority = False
profit_loss_accelerated_deterioration = False
capital_increase_completed = False
net_worth_accelerated_deterioration = False
internal_handling_established = True
improvement_plan_required = False
financial_or_business_deterioration = False
professional_reinsurance_violation = False
violation_of_article_148_1_or_2 = False
capital_level_4_noncompliance = True
supervision_or_takeover_or_shutdown = False
capital_level = 4
improvement_plan_failure = False
violation_148_2_1 = False
violation_of_reinsurance_rules = False
internal_handling_violation = False
internal_control_executed = True
reinsurance_violation = False
violation_of_article_148_2_2 = False
penalty = False
internal_handling_executed = True
violation_147_1_or_2 = False
internal_control_established = True
internal_control_violation = False
violation_148_2_2 = False
violation_of_article_148_2_1 = False
violation_of_professional_reinsurance_rules = False
capital_level_4_penalty_period = 0